NAME : random_5
COMMENT : 50 random nodes
TYPE : TSP
DIMENSION : 50
EDGE_WEIGHT_TYPE : EUC_2D
NODE_COORD_SECTION
1 912 765
2 883 873
3 786 795
4 310 180
5 489 744
6 1 43
7 244 938
8 141 479
9 993 275
10 176 532
11 795 273
12 89 540
13 974 152
14 711 456
15 511 809
16 551 364
17 36 957
18 664 964
19 675 975
20 318 14
21 114 870
22 305 397
23 496 10
24 87 107
25 224 938
26 929 685
27 330 606
28 963 922
29 267 120
30 530 195
31 531 590
32 223 887
33 416 636
34 757 914
35 578 501
36 507 847
37 317 855
38 166 409
39 503 72
40 629 317
41 696 2
42 747 668
43 997 85
44 655 474
45 27 367
46 699 395
47 702 669
48 884 502
49 366 67
50 521 350
EOF